1	 2 
1	 16 
1	 31 
2	 3 
2	 17 
3	 4 
3	 18 
4	 5 
4	 19 
5	 6 
5	 20 
6	 7 
6	 21 
7	 8 
7	 22 
8	 9 
8	 23 
9	 10 
9	 24 
10	 11 
10	 25 
11	 12 
11	 26 
12	 13 
12	 27 
13	 14 
13	 28 
14	 15 
14	 29 
15	 16 
15	 30 
16	 17 
16	 31 
17	 18 
18	 19 
19	 20 
20	 21 
21	 22 
22	 23 
23	 24 
24	 25 
25	 26 
26	 27 
27	 28 
28	 29 
29	 30 
30	 31 
